NAME: tsp35_26
COMMENT: 35-tsp problem (Padberg/Rinaldi)
TYPE: TSP
DIMENSION: 35
EDGE_WEIGHT_TYPE : EUC_2D
NODE_COORD_SECTION
1 19 38
2 20 19
3 32 9
4 7 39
5 4 20
6 12 11
7 13 1
8 29 14
9 39 1
10 9 12
11 0 22
12 27 16
13 7 7
14 34 28
15 7 39
16 7 39
17 33 8
18 4 20
19 30 37
20 3 13
21 34 28
22 21 2
23 15 13
24 33 18
25 20 34
26 10 15
27 14 12
28 30 38
29 13 27
30 12 3
31 20 40
32 28 29
33 17 5
34 19 1
35 23 0
